26 33 62 68 32 87 96 70 32 22 87 23 34 88 33 84 95 37 21 21 79 37 93 68 46 
56 90 34 13 71 33 66 74 88 71 78 25 34 91 30 69 62 72 53 10 96 88 25 74 69 
49 73 24 24 36 43 63 30 51 65 85 32 33 48 36 41 88 46 28 94 46 14 97 97 34 
27 35 73 47 18 47 46 97 97 41 31 30 69 24 90 33 62 50 49 33 45 36 88 95 50 
21 56 51 20 52 24 88 63 39 74 18 30 48 46 15 66 96 96 41 35 44 25 78 79 37 
621
96 37 86 70 17 67 10 34 12 18 85 20 13 69 79 82 19 25 31 22 88 63 72 49 70 
617
71 87 25 13 77 37 20 92 52 20 21 51 83 58 70 37 57 98 29 94 15 17 56 68 64 
656
74 34 51 31 89 36 83 55 97 43 29 64 51 91 47 15 74 47 78 50 88 97 18 44 31 
708
